min: ;
Czero: ZERO = 0;
C0: height - 0 = 26000;
C1: yVDDb - 0 = 3600;
C2: height - yGNDa = 3600;
C3: posNWell - 0 = 2280;
C4: yNDiffa - 0 >= 420;
C5: height - yPDiffb >= 420;
C6: posNWell - yNDiffb >= 320;
C7: yPDiffa - posNWell >= 320;
C8: yCentralTrack - 0 = -1;
C9: yPolTrack[1]a - yNDiffb >= 280;
C10: yPolTrack[1]b - yPolTrack[1]a >= 120;
C11: yPDiffa - yPolTrack[1]b >= 280;
C12: yPolTrack[1]a - yPolCnt[1]a >= 0;
C13: yPolCnt[1]b - yPolTrack[1]b >= 0;
C14: yPolMetCnt[1]b - yPolMetCnt[1]a = 180;
C15: yPolCnt[1]b - yPolMetCnt[1]b >= 0;
C16: yPDiffa - yPolyTrack[1]b >= 280;
